This is Ipopt version 3.13.2, running with linear solver mumps.
NOTE: Other linear solvers might be more efficient (see Ipopt documentation).

Number of nonzeros in equality constraint Jacobian...:   528190
Number of nonzeros in inequality constraint Jacobian.:   737044
Number of nonzeros in Lagrangian Hessian.............:        0

Total number of variables............................:     8004
                     variables with only lower bounds:      800
                variables with lower and upper bounds:     1200
                     variables with only upper bounds:        0
Total number of equality constraints.................:     5594
Total number of inequality constraints...............:     9600
        inequality constraints with only lower bounds:        0
   inequality constraints with lower and upper bounds:     4800
        inequality constraints with only upper bounds:     4800

iter    objective    inf_pr   inf_du lg(mu)  ||d||  lg(rg) alpha_du alpha_pr  ls
   0  1.0000000e+02 2.45e+00 3.20e+00  -3.0 0.00e+00    -  0.00e+00 0.00e+00   0
   1  9.9053068e+01 2.33e+00 3.04e+00  -3.0 5.98e+00    -  6.57e-02 5.46e-02h  1
   2  9.9629128e+01 2.29e+00 2.96e+00  -3.0 4.44e+00    -  1.03e-02 1.60e-02h  1
   3  9.9914503e+01 2.21e+00 7.93e+00  -3.0 3.71e+00    -  1.53e-02 3.89e-02h  1
   4  9.9984714e+01 2.21e+00 6.23e+00  -3.0 3.11e+00    -  1.34e-02 7.52e-04h  8
   5  9.9991802e+01 2.21e+00 6.08e+00  -3.0 3.37e+00    -  1.17e-02 1.47e-04h  9
   6  9.9994198e+01 2.21e+00 6.10e+00  -3.0 3.68e+00    -  2.02e-02 1.84e-05h 12
   7  1.0197281e+02 2.15e+00 5.95e+00  -3.0 3.79e+00    -  2.38e-02 2.38e-02s 18
   8  1.0290463e+02 2.14e+00 5.89e+00  -3.0 5.16e+00    -  8.49e-03 8.49e-03s 18
   9  1.0426383e+02 2.11e+00 6.12e+00  -3.0 5.14e+00    -  1.36e-02 0.00e+00S 18
iter    objective    inf_pr   inf_du lg(mu)  ||d||  lg(rg) alpha_du alpha_pr  ls
  10  1.0832239e+02 2.03e+00 7.01e+00  -3.0 3.78e+00    -  9.14e-02 3.78e-02h  2
  11  1.1088182e+02 1.95e+00 6.72e+00  -3.0 3.27e+00    -  3.64e-02 3.78e-02h  3
  12  1.1442659e+02 1.87e+00 6.29e+00  -3.0 2.98e+00    -  1.00e-01 4.13e-02h  4
  13  1.2044672e+02 1.73e+00 5.68e+00  -3.0 2.85e+00    -  1.01e-01 7.30e-02h  3
  14  1.2967200e+02 1.53e+00 5.71e+00  -3.0 2.68e+00    -  8.88e-02 1.15e-01h  2
  15  1.3080164e+02 1.48e+00 6.21e+00  -3.0 1.47e+00    -  7.85e-02 3.46e-02h  1
  16  1.5112927e+02 9.81e-01 7.82e+00  -3.0 1.83e+00    -  8.96e-02 3.26e-01H  1
  17  1.6791307e+02 8.57e-01 5.90e+00  -3.0 1.46e+00    -  2.74e-01 3.92e-01h  1
  18  1.8899921e+02 9.64e-01 4.15e+00  -3.0 9.41e-01    -  4.12e-01 9.49e-01h  1
  19  1.7791689e+02 1.41e-01 1.40e+00  -3.0 1.76e-01    -  6.31e-01 1.00e+00f  1
iter    objective    inf_pr   inf_du lg(mu)  ||d||  lg(rg) alpha_du alpha_pr  ls
  20  1.5198015e+02 4.91e-01 1.07e+00  -3.0 5.90e-01    -  2.88e-01 1.00e+00f  1
  21  1.4555127e+02 3.06e-01 7.33e-01  -3.0 3.95e-01    -  2.96e-01 1.00e+00h  1
  22  1.4113559e+02 2.51e-01 5.30e-01  -3.0 5.54e-01    -  3.00e-01 5.47e-01h  1
  23  1.3707290e+02 2.29e-01 4.06e-01  -3.0 7.84e-01    -  2.68e-01 5.09e-01h  1
  24  1.3507459e+02 1.83e-01 3.13e-01  -3.0 1.01e+00    -  2.33e-01 2.98e-01h  1
  25  1.3211172e+02 1.30e-01 2.14e-01  -3.0 1.20e+00    -  2.78e-01 4.51e-01h  1
  26  1.2957641e+02 1.01e-01 1.31e-01  -3.0 8.74e-01    -  2.80e-01 5.01e-01h  1
  27  1.2800553e+02 6.30e-02 1.06e-01  -3.0 7.38e-01    -  5.04e-01 4.39e-01h  1
  28  1.2645796e+02 1.51e-01 5.60e-02  -3.0 1.16e+00    -  6.28e-01 4.50e-01h  1
  29  1.2517933e+02 8.60e-02 7.34e-02  -3.0 5.09e-01    -  5.81e-01 5.51e-01h  1
iter    objective    inf_pr   inf_du lg(mu)  ||d||  lg(rg) alpha_du alpha_pr  ls
  30  1.2382701e+02 5.49e-02 1.18e-01  -3.0 4.54e-01    -  9.99e-01 1.00e+00h  1
  31  1.2353377e+02 1.48e-01 1.31e-01  -3.0 5.09e-01    -  9.99e-01 1.00e+00h  1
  32  1.2369163e+02 2.88e-02 4.84e-02  -3.0 2.94e-01    -  1.00e+00 1.00e+00h  1
  33  1.2373603e+02 1.58e-03 4.11e-02  -3.0 6.82e-02    -  1.00e+00 1.00e+00h  1
  34  1.2375568e+02 8.14e-04 2.04e-02  -3.0 1.02e-01    -  1.00e+00 1.00e+00h  1
  35  1.2378415e+02 1.80e-04 5.36e-02  -3.0 3.12e-01    -  1.00e+00 1.00e+00H  1
  36  1.2377250e+02 1.90e-03 3.73e-02  -3.0 1.18e-01    -  1.00e+00 1.00e+00h  1
  37  1.2376689e+02 1.12e-03 1.61e-02  -3.0 8.05e-02    -  1.00e+00 1.00e+00h  1
  38  1.2376892e+02 1.44e-04 1.02e-02  -3.0 4.94e-02    -  1.00e+00 1.00e+00h  1
  39  1.2376977e+02 3.01e-05 1.99e-03  -3.0 1.93e-02    -  1.00e+00 1.00e+00h  1
iter    objective    inf_pr   inf_du lg(mu)  ||d||  lg(rg) alpha_du alpha_pr  ls
  40  1.2159510e+02 7.07e-03 8.34e-02  -4.5 3.79e-01    -  8.19e-01 6.29e-01f  1
  41  1.2096297e+02 5.87e-03 8.93e-02  -4.5 5.65e-01    -  7.83e-01 3.48e-01h  1
  42  1.2043998e+02 2.30e-02 1.00e-01  -4.5 1.08e+00    -  1.12e-01 3.27e-01h  1
  43  1.2010141e+02 2.04e-02 4.28e-02  -4.5 1.28e+00    -  4.88e-01 2.93e-01h  1
  44  1.1991893e+02 5.73e-02 4.49e-02  -4.5 1.19e+00    -  4.11e-01 2.98e-01h  1
  45  1.1976944e+02 2.66e-02 2.77e-02  -4.5 6.12e-01    -  5.76e-01 4.84e-01h  1
  46  1.1969188e+02 3.91e-02 4.19e-02  -4.5 8.53e-01    -  6.11e-01 3.94e-01h  1
  47  1.1965065e+02 1.79e-02 6.04e-02  -4.5 2.90e-01    -  7.35e-01 5.86e-01h  1
  48  1.1962889e+02 6.43e-03 1.77e-02  -4.5 1.38e-01    -  9.59e-01 1.00e+00h  1
  49  1.1963044e+02 2.39e-03 1.10e-02  -4.5 8.43e-02    -  1.00e+00 1.00e+00h  1
iter    objective    inf_pr   inf_du lg(mu)  ||d||  lg(rg) alpha_du alpha_pr  ls
  50  1.1962859e+02 8.42e-04 1.46e-02  -4.5 1.20e-01    -  1.00e+00 1.00e+00h  1
  51  1.1962459e+02 1.31e-03 1.46e-02  -4.5 2.26e-01    -  1.00e+00 1.00e+00h  1
  52  1.1961975e+02 5.83e-03 4.23e-02  -4.5 3.35e-01    -  1.00e+00 1.00e+00h  1
  53  1.1961837e+02 5.58e-03 2.62e-02  -4.5 1.06e-01    -  1.00e+00 1.00e+00h  1
  54  1.1962178e+02 1.41e-03 1.18e-02  -4.5 5.18e-02    -  1.00e+00 1.00e+00h  1
  55  1.1962312e+02 4.51e-05 1.83e-03  -4.5 3.12e-02    -  1.00e+00 1.00e+00h  1
  56  1.1962316e+02 1.58e-07 1.26e-03  -4.5 2.75e-02    -  1.00e+00 1.00e+00H  1
  57  1.1962353e+02 1.59e-07 2.61e-02  -4.5 2.13e-01    -  1.00e+00 1.00e+00H  1
  58  1.1961950e+02 1.79e-03 9.00e-03  -4.5 7.16e-02    -  1.00e+00 1.00e+00h  1
  59  1.1962121e+02 6.56e-04 5.06e-03  -4.5 3.96e-02    -  1.00e+00 1.00e+00h  1
iter    objective    inf_pr   inf_du lg(mu)  ||d||  lg(rg) alpha_du alpha_pr  ls
  60  1.1962167e+02 3.54e-05 3.71e-03  -4.5 1.65e-02    -  1.00e+00 1.00e+00h  1
  61  1.1962165e+02 1.32e-05 2.61e-03  -4.5 1.73e-02    -  1.00e+00 1.00e+00h  1
  62  1.1962154e+02 3.81e-07 3.12e-03  -4.5 3.90e-02    -  1.00e+00 1.00e+00H  1
  63  1.1962135e+02 9.70e-08 5.56e-03  -4.5 1.00e-01    -  1.00e+00 1.00e+00H  1
  64  1.1962109e+02 1.86e-04 6.29e-03  -4.5 4.61e-02    -  1.00e+00 1.00e+00h  1
  65  1.1962105e+02 6.36e-05 4.29e-03  -4.5 2.77e-02    -  1.00e+00 1.00e+00h  1
  66  1.1962116e+02 1.20e-05 1.29e-03  -4.5 1.19e-02    -  1.00e+00 1.00e+00h  1
  67  1.1962119e+02 7.31e-06 5.29e-04  -4.5 1.54e-02    -  1.00e+00 1.00e+00h  1
  68  1.1962120e+02 2.94e-08 1.23e-03  -4.5 2.72e-02    -  1.00e+00 1.00e+00H  1
  69  1.1962120e+02 3.49e-08 1.12e-03  -4.5 5.22e-02    -  1.00e+00 1.00e+00H  1
iter    objective    inf_pr   inf_du lg(mu)  ||d||  lg(rg) alpha_du alpha_pr  ls
  70  1.1962131e+02 8.44e-10 4.61e-03  -4.5 1.34e-01    -  1.00e+00 1.00e+00H  1
  71  1.1962109e+02 2.13e-05 1.62e-03  -4.5 4.92e-02    -  1.00e+00 1.00e+00h  1
  72  1.1962115e+02 2.64e-05 3.43e-03  -4.5 1.15e-02    -  1.00e+00 1.00e+00h  1
  73  1.1962117e+02 7.94e-06 5.15e-04  -4.5 2.37e-02    -  1.00e+00 1.00e+00h  1
  74  1.1962122e+02 3.12e-07 2.35e-04  -4.5 9.14e-03    -  1.00e+00 1.00e+00h  1
  75  1.1953873e+02 3.34e-04 7.17e-03  -5.0 8.06e-02    -  1.00e+00 8.06e-01f  1
  76  1.1951548e+02 7.25e-04 1.01e-02  -5.0 9.64e-02    -  1.00e+00 8.73e-01h  1
  77  1.1951138e+02 2.27e-03 2.44e-02  -5.0 6.93e-02    -  1.00e+00 9.30e-01h  1
  78  1.1951118e+02 2.09e-03 9.07e-03  -5.0 5.87e-02    -  1.00e+00 1.00e+00h  1
  79  1.1951235e+02 4.24e-04 2.81e-03  -5.0 2.86e-02    -  1.00e+00 1.00e+00h  1
iter    objective    inf_pr   inf_du lg(mu)  ||d||  lg(rg) alpha_du alpha_pr  ls
  80  1.1951272e+02 3.84e-05 1.32e-03  -5.0 1.06e-02    -  1.00e+00 1.00e+00h  1
  81  1.1951182e+02 1.47e-06 5.89e-03  -5.0 8.54e-02    -  1.00e+00 1.00e+00H  1
  82  1.1951332e+02 5.91e-07 1.76e-02  -5.0 2.93e-01    -  1.00e+00 1.00e+00H  1
  83  1.1950897e+02 1.81e-03 1.11e-02  -5.0 1.24e-01    -  1.00e+00 1.00e+00h  1
  84  1.1950957e+02 1.40e-03 6.40e-03  -5.0 8.18e-02    -  1.00e+00 4.50e-01h  2
  85  1.1951124e+02 2.14e-05 2.01e-03  -5.0 1.96e-02    -  1.00e+00 1.00e+00h  1
  86  1.1951130e+02 4.04e-06 1.18e-03  -5.0 1.14e-02    -  1.00e+00 1.00e+00h  1
  87  1.1951131e+02 5.96e-07 5.47e-04  -5.0 1.06e-02    -  1.00e+00 1.00e+00h  1
  88  1.1951124e+02 9.91e-08 2.89e-03  -5.0 6.78e-02    -  1.00e+00 1.00e+00H  1
  89  1.1951137e+02 6.36e-09 7.52e-03  -5.0 2.40e-01    -  1.00e+00 1.00e+00H  1
iter    objective    inf_pr   inf_du lg(mu)  ||d||  lg(rg) alpha_du alpha_pr  ls
  90  1.1951068e+02 2.11e-04 3.62e-03  -5.0 4.70e-02    -  1.00e+00 1.00e+00h  1
  91  1.1951085e+02 3.11e-04 5.02e-03  -5.0 6.91e-02    -  1.00e+00 1.00e+00h  1
  92  1.1951098e+02 1.07e-04 8.75e-04  -5.0 4.95e-02    -  1.00e+00 1.00e+00h  1
  93  1.1951104e+02 3.89e-06 1.14e-03  -5.0 2.72e-02    -  1.00e+00 1.00e+00h  1
  94  1.1951105e+02 2.28e-06 8.11e-04  -5.0 5.30e-03    -  1.00e+00 1.00e+00h  1
  95  1.1951105e+02 5.40e-07 6.03e-04  -5.0 1.13e-02    -  1.00e+00 1.00e+00h  1
  96  1.1951103e+02 6.44e-09 6.16e-04  -5.0 3.68e-02    -  1.00e+00 1.00e+00H  1
  97  1.1951105e+02 3.95e-10 4.88e-03  -5.0 1.17e-01    -  1.00e+00 1.00e+00H  1
  98  1.1951078e+02 6.80e-05 5.60e-03  -5.0 5.01e-02    -  1.00e+00 1.00e+00h  1
  99  1.1951096e+02 1.88e-07 2.88e-03  -5.0 2.71e-02    -  1.00e+00 1.00e+00H  1
iter    objective    inf_pr   inf_du lg(mu)  ||d||  lg(rg) alpha_du alpha_pr  ls
 100  1.1951091e+02 1.42e-05 4.02e-03  -5.0 1.06e-02    -  1.00e+00 1.00e+00h  1
 101  1.1951089e+02 1.12e-05 2.45e-04  -5.0 8.79e-03    -  1.00e+00 1.00e+00h  1
 102  1.1951094e+02 9.02e-08 1.79e-04  -5.0 2.33e-03    -  1.00e+00 1.00e+00h  1
 103  1.1951092e+02 1.10e-08 1.75e-03  -5.0 5.11e-02    -  1.00e+00 1.00e+00H  1
 104  1.1951110e+02 3.11e-10 8.65e-03  -5.0 5.63e-02    -  1.00e+00 1.00e+00H  1
 105  1.1951062e+02 1.56e-04 2.59e-03  -5.0 2.93e-02    -  1.00e+00 1.00e+00f  1
 106  1.1951067e+02 3.13e-04 5.94e-03  -5.0 3.03e-02    -  1.00e+00 1.00e+00h  1
 107  1.1951070e+02 1.11e-04 1.40e-03  -5.0 2.35e-02    -  1.00e+00 1.00e+00h  1
 108  1.1951086e+02 1.61e-06 1.77e-03  -5.0 4.91e-03    -  1.00e+00 1.00e+00h  1
 109  1.1951086e+02 9.49e-07 1.24e-04  -5.0 4.07e-03    -  1.00e+00 1.00e+00h  1
iter    objective    inf_pr   inf_du lg(mu)  ||d||  lg(rg) alpha_du alpha_pr  ls
 110  1.1951087e+02 2.93e-08 1.21e-04  -5.0 9.08e-04    -  1.00e+00 1.00e+00h  1
 111  1.1951086e+02 2.02e-07 6.77e-04  -5.0 1.62e-02    -  1.00e+00 1.00e+00H  1
 112  1.1951087e+02 4.52e-10 1.85e-03  -5.0 1.24e-02    -  1.00e+00 1.00e+00H  1
 113  1.1951083e+02 9.34e-06 8.64e-04  -5.0 1.04e-02    -  1.00e+00 1.00e+00h  1
 114  1.1951085e+02 5.92e-07 1.20e-03  -5.0 2.85e-03    -  1.00e+00 1.00e+00h  1
 115  1.1951085e+02 1.95e-07 7.28e-05  -5.0 1.65e-03    -  1.00e+00 1.00e+00h  1

Number of Iterations....: 115

                                   (scaled)                 (unscaled)
Objective...............:   1.1951085167910624e+02    1.1951085167910624e+02
Dual infeasibility......:   7.2815357398615423e-05    7.2815357398615423e-05
Constraint violation....:   1.9454862206206810e-07    1.9454862206206810e-07
Complementarity.........:   9.0909090909183559e-06    9.0909090909183559e-06
Overall NLP error.......:   7.2815357398615423e-05    7.2815357398615423e-05


Number of objective function evaluations             = 217
Number of objective gradient evaluations             = 116
Number of equality constraint evaluations            = 217
Number of inequality constraint evaluations          = 217
Number of equality constraint Jacobian evaluations   = 116
Number of inequality constraint Jacobian evaluations = 116
Number of Lagrangian Hessian evaluations             = 0
Total CPU secs in IPOPT (w/o function evaluations)   =    219.020
Total CPU secs in NLP function evaluations           =    816.678

EXIT: Optimal Solution Found.
